Au Cu Au Cu Au
 1.0000000000000000
     0.0000000000000000    3.7999999999999998    3.7999999999999998
     3.7999999999999998    0.0000000000000000    3.7999999999999998
     7.5999999999999996    7.5999999999999996    0.0000000000000000
 Au  Cu  Au  Cu  Au 
   2   4   4   4   2
Cartesian
  0.0000000000000000  0.0000000000000000  0.0000000000000000
 -0.0000000000000000  1.8999999999999997  1.8999999999999997
  1.8999999999999995  0.0000000000000000  1.8999999999999999
  1.8999999999999999  1.8999999999999999  0.0000000000000000
  1.8999999999999992  1.8999999999999992  3.7999999999999994
  1.8999999999999999  3.7999999999999998  1.8999999999999997
  3.7999999999999998  1.8999999999999999  1.8999999999999997
  3.7999999999999994  3.7999999999999994  0.0000000000000000
  3.7999999999999994  3.7999999999999994  3.7999999999999994
  3.7999999999999998  5.6999999999999993  1.9000000000000001
  5.6999999999999993  3.7999999999999998  1.9000000000000001
  5.6999999999999993  5.6999999999999993  0.0000000000000000
  5.6999999999999993  5.6999999999999993  3.8000000000000016
  5.6999999999999993  7.5999999999999996  1.9000000000000004
  7.5999999999999996  5.6999999999999993  1.9000000000000004
  7.5999999999999996  7.5999999999999996  3.8000000000000007
