Cu Au Cu Au Cu Au Cu Au Cu Au Cu Au Cu Au Cu Au Cu Au Cu Au Cu Au Cu Au Cu Au Cu Au Cu Au Cu Au Cu Au Cu Au Cu Au Cu Au Cu Au Cu Au Cu Au Cu Au Cu Au Cu Au Cu Au Cu Au Cu Au Cu Au Cu Au Cu Au
 1.0000000000000000
     0.0000000000000000    7.5999999999999996    7.5999999999999996
     7.5999999999999996    0.0000000000000000    7.5999999999999996
     7.5999999999999996    7.5999999999999996    0.0000000000000000
 Cu  Au  Cu  Au  Cu  Au  Cu  Au  Cu  Au  Cu  Au  Cu  Au  Cu  Au  Cu  Au  Cu  Au  Cu  Au  Cu  Au  Cu  Au  Cu  Au  Cu  Au  Cu  Au  Cu  Au  Cu  Au  Cu  Au  Cu  Au  Cu  Au  Cu  Au  Cu  Au  Cu  Au  Cu  Au  Cu  Au  Cu  Au  Cu  Au  Cu  Au  Cu  Au  Cu  Au  Cu  Au 
   1   1   1   1   1   1   1   1   1   1   1   1   1   1   1   1   1   1   1   1   1   1   1   1   1   1   1   1   1   1   1   1   1   1   1   1   1   1   1   1   1   1   1   1   1   1   1   1   1   1   1   1   1   1   1   1   1   1   1   1   1   1   1   1
Cartesian
  0.0000000000000000  0.0000000000000000  0.0000000000000000
 -0.0000000000000000  1.8999999999999990  1.8999999999999990
 -0.0000000000000000  3.7999999999999994  3.7999999999999994
 -0.0000000000000000  5.6999999999999975  5.7000000000000011
  1.8999999999999992 -0.0000000000000000  1.8999999999999997
  1.8999999999999999  1.8999999999999999  0.0000000000000000
  1.8999999999999995  1.8999999999999995  3.7999999999999998
  1.8999999999999997  3.7999999999999989  1.8999999999999997
  1.8999999999999990  3.7999999999999989  5.6999999999999993
  1.8999999999999997  5.6999999999999984  3.8000000000000003
  1.8999999999999999  5.6999999999999975  7.6000000000000005
  1.8999999999999995  7.5999999999999988  5.6999999999999993
  3.7999999999999989 -0.0000000000000000  3.7999999999999998
  3.7999999999999989  1.8999999999999997  1.8999999999999997
  3.7999999999999989  1.8999999999999990  5.6999999999999993
  3.7999999999999994  3.7999999999999994  0.0000000000000000
  3.7999999999999989  3.7999999999999989  3.7999999999999998
  3.7999999999999985  3.7999999999999985  7.5999999999999988
  3.7999999999999998  5.6999999999999993  1.8999999999999999
  3.7999999999999989  5.6999999999999993  5.6999999999999993
  3.7999999999999998  5.6999999999999975  9.5000000000000000
  3.7999999999999994  7.5999999999999979  3.7999999999999985
  3.7999999999999989  7.5999999999999979  7.5999999999999996
  3.7999999999999998  9.4999999999999982  5.7000000000000020
  5.6999999999999984 -0.0000000000000000  5.7000000000000002
  5.6999999999999984  1.8999999999999995  3.7999999999999998
  5.6999999999999984  1.8999999999999999  7.5999999999999996
  5.6999999999999993  3.7999999999999998  1.8999999999999999
  5.6999999999999993  3.7999999999999989  5.6999999999999993
  5.6999999999999975  3.7999999999999998  9.5000000000000018
  5.6999999999999993  5.6999999999999993  0.0000000000000000
  5.6999999999999993  5.6999999999999993  3.8000000000000016
  5.6999999999999993  5.6999999999999993  7.6000000000000032
  5.6999999999999975  5.6999999999999975 11.3999999999999986
  5.6999999999999993  7.5999999999999996  1.9000000000000004
  5.6999999999999993  7.5999999999999979  5.6999999999999984
  5.6999999999999993  7.5999999999999979  9.5000000000000000
  5.6999999999999993  9.5000000000000000  3.8000000000000007
  5.6999999999999993  9.5000000000000000  7.5999999999999996
  5.6999999999999993 11.3999999999999968  5.6999999999999993
  7.5999999999999988  1.8999999999999995  5.6999999999999993
  7.5999999999999979  3.7999999999999994  3.7999999999999985
  7.5999999999999979  3.7999999999999989  7.5999999999999996
  7.5999999999999996  5.6999999999999993  1.9000000000000004
  7.5999999999999979  5.6999999999999993  5.6999999999999984
  7.5999999999999979  5.6999999999999993  9.5000000000000018
  7.5999999999999996  7.5999999999999996  3.8000000000000007
  7.5999999999999979  7.5999999999999979  7.5999999999999988
  7.5999999999999979  7.5999999999999979 11.3999999999999986
  7.5999999999999996  9.5000000000000000  5.7000000000000011
  7.5999999999999979  9.5000000000000000  9.4999999999999982
  7.5999999999999996 11.3999999999999986  7.5999999999999996
  9.4999999999999982  3.7999999999999994  5.7000000000000002
  9.5000000000000000  5.6999999999999993  3.8000000000000007
  9.5000000000000000  5.6999999999999993  7.5999999999999996
  9.5000000000000000  7.5999999999999996  5.7000000000000011
  9.5000000000000000  7.5999999999999979  9.4999999999999982
  9.5000000000000000  9.5000000000000000  7.6000000000000032
  9.4999999999999982  9.4999999999999982 11.4000000000000004
  9.5000000000000000 11.3999999999999968  9.5000000000000000
 11.3999999999999968  5.6999999999999993  5.6999999999999993
 11.3999999999999986  7.5999999999999996  7.5999999999999996
 11.3999999999999968  9.5000000000000000  9.5000000000000018
 11.3999999999999950 11.3999999999999950 11.3999999999999986
